32      4       
18      13      13      11      
0       0       0       0       0       1       2       
10      0       0       6       4       1       3       
2       6       13      0       0       1       4       
8       0       11      13      0       2       5       8       
1       0       0       5       6       1       6       
10      18      0       9       0       1       7       
5       0       13      12      0       1       9       
1       16      4       0       0       1       9       
9       18      13      0       0       2       10      15      
8       12      0       0       10      1       11      
4       0       13      0       5       2       12      25      
3       12      0       0       8       1       13      
3       18      0       0       8       1       14      
5       0       0       12      11      1       16      
1       0       0       9       11      1       16      
9       0       0       12      11      1       17      
3       0       0       11      11      2       18      23      
1       7       11      0       0       2       19      20      
9       0       0       12      5       1       21      
6       18      0       13      0       1       21      
9       13      0       0       10      1       22      
7       13      13      0       0       1       24      
5       0       13      8       0       1       24      
5       0       6       8       0       2       26      27      
8       0       12      0       11      2       26      27      
9       18      13      0       0       1       28      
3       18      3       0       0       1       28      
6       0       8       13      0       1       29      
4       0       10      0       11      1       30      
7       18      0       13      0       1       31      
5       11      0       0       10      1       32      
0       0       0       0       0       0       
